PROBLEM NAME: eil51_n9
KNAPSACK DATA TYPE: uncorrelated
DIMENSION: 9
NUMBER OF ITEMS: 40
CAPACITY OF KNAPSACK: 20218
MIN SPEED: 0.1
MAX SPEED: 1
RENTING RATIO: 21.94
EDGE_WEIGHT_TYPE: CEIL_2D
NODE_COORD_SECTION	(INDEX, X, Y):
1	17	63
2	31	62
3	36	16
4	52	41
5	27	23
6	62	63
7	32	22
8	5	6
9	56	37
ITEMS SECTION	(INDEX, PROFIT, WEIGHT, ASSIGNED NODE NUMBER):
1	971	41	2
2	925	721	2
3	903	776	2
4	898	902	2
5	891	532	2
6	887	709	6
7	867	970	6
8	832	220	6
9	832	322	6
10	808	906	6
11	801	949	4
12	727	724	4
13	716	727	4
14	710	416	4
15	632	343	4
16	602	326	9
17	572	300	9
18	548	340	9
19	537	551	9
20	518	149	9
21	514	512	3
22	434	925	3
23	431	493	3
24	383	700	3
25	383	736	3
26	377	652	7
27	348	380	7
28	343	581	7
29	308	4	7
30	281	930	7
31	272	208	5
32	239	364	5
33	218	428	5
34	212	811	5
35	165	338	5
36	138	148	8
37	116	909	8
38	111	453	8
39	106	893	8
40	91	851	8
